675
1 0 5 643 1 673 1 659 1 658 1 657 1
2 0 5 442 1 168 1 149 1 185 1 15 1
3 0 5 592 1 565 1 484 1 464 1 429 1
4 0 5 199 1 162 1 253 1 205 1 125 1
5 0 5 418 1 431 1 164 1 539 1 444 1
6 0 5 58 1 262 1 261 1 571 1 266 1
7 0 5 473 1 554 1 171 1 70 1 336 1
8 0 5 631 1 508 1 544 1 139 1 411 1
9 0 5 568 1 630 1 478 1 541 1 298 1
10 0 5 109 1 47 1 133 1 48 1 213 1
11 0 5 586 1 599 1 463 1 298 1 406 1
12 0 5 132 1 161 1 117 1 608 1 185 1
13 0 5 562 1 194 1 61 1 128 1 260 1
14 0 5 463 1 563 1 599 1 67 1 11 1
15 0 5 123 1 51 1 149 1 301 1 2 1
16 0 5 93 1 503 1 533 1 492 1 612 1
17 0 5 260 1 65 1 99 1 421 1 143 1
18 0 5 573 1 445 1 638 1 76 1 480 1
19 0 5 469 1 143 1 201 1 81 1 492 1
20 0 5 469 1 538 1 271 1 56 1 306 1
21 0 5 528 1 160 1 523 1 280 1 294 1
22 0 5 575 1 613 1 626 1 348 1 451 1
23 0 5 410 1 74 1 331 1 153 1 139 1
24 0 5 605 1 491 1 304 1 268 1 343 1
25 0 5 31 1 63 1 91 1 552 1 239 1
26 0 5 477 1 593 1 101 1 545 1 86 1
27 0 5 85 1 385 1 319 1 229 1 276 1
28 0 5 196 1 150 1 69 1 567 1 105 1
29 0 5 10 1 305 1 39 1 292 1 653 1
30 0 5 121 1 449 1 308 1 588 1 618 1
31 0 5 245 1 91 1 25 1 152 1 552 1
32 0 5 159 1 259 1 54 1 112 1 116 1
33 0 5 420 1 591 1 553 1 135 1 333 1
34 0 5 529 1 156 1 625 1 224 1 443 1
35 0 5 203 1 50 1 297 1 129 1 97 1
36 0 5 215 1 154 1 255 1 608 1 117 1
37 0 5 217 1 421 1 470 1 275 1 148 1
38 0 5 313 1 248 1 95 1 118 1 175 1
39 0 5 47 1 48 1 133 1 213 1 10 1
40 0 5 78 1 550 1 296 1 467 1 98 1
41 0 5 263 1 320 1 243 1 341 1 369 1
42 0 5 317 1 311 1 189 1 173 1 344 1
43 0 5 317 1 56 1 155 1 189 1 42 1
44 0 5 178 1 281 1 471 1 478 1 186 1
45 0 5 530 1 269 1 464 1 73 1 527 1
46 0 5 207 1 183 1 352 1 112 1 222 1
47 0 5 305 1 10 1 39 1 292 1 48 1
48 0 5 305 1 10 1 39 1 47 1 133 1
49 0 5 147 1 52 1 216 1 197 1 568 1
50 0 5 203 1 297 1 35 1 129 1 289 1
51 0 5 597 1 151 1 123 1 15 1 430 1
52 0 5 49 1 197 1 147 1 568 1 216 1
53 0 5 89 1 223 1 71 1 129 1 150 1
54 0 5 222 1 352 1 112 1 122 1 46 1
55 0 5 388 1 524 1 70 1 621 1 198 1
56 0 5 43 1 155 1 344 1 271 1 20 1
57 0 5 300 1 424 1 195 1 524 1 296 1
58 0 5 6 1 262 1 571 1 261 1 278 1
59 0 5 113 1 94 1 600 1 122 1 96 1
60 0 5 462 1 490 1 518 1 460 1 190 1
61 0 5 194 1 13 1 100 1 260 1 562 1
62 0 5 266 1 261 1 288 1 398 1 105 1
63 0 5 239 1 25 1 342 1 552 1 71 1
64 0 5 502 1 401 1 227 1 619 1 428 1
65 0 5 143 1 17 1 99 1 260 1 421 1
66 0 5 101 1 478 1 406 1 273 1 44 1
67 0 5 365 1 463 1 220 1 586 1 416 1
68 0 5 339 1 220 1 365 1 67 1 353 1
69 0 5 513 1 150 1 342 1 71 1 53 1
70 0 5 473 1 198 1 384 1 55 1 7 1
71 0 5 342 1 239 1 53 1 513 1 69 1
72 0 5 296 1 417 1 252 1 524 1 195 1
73 0 5 464 1 530 1 565 1 152 1 45 1
74 0 5 96 1 23 1 422 1 600 1 153 1
75 0 5 107 1 315 1 184 1 316 1 585 1
76 0 5 480 1 603 1 573 1 18 1 445 1
77 0 5 509 1 579 1 470 1 375 1 543 1
78 0 5 40 1 550 1 98 1 524 1 351 1
79 0 5 138 1 397 1 435 1 287 1 316 1
80 0 5 114 1 234 1 175 1 102 1 309 1
81 0 5 538 1 306 1 267 1 469 1 201 1
82 0 5 286 1 170 1 636 1 521 1 364 1
83 0 5 518 1 332 1 337 1 180 1 626 1
84 0 5 106 1 144 1 359 1 168 1 506 1
85 0 5 639 1 27 1 206 1 476 1 526 1
86 0 5 477 1 273 1 363 1 564 1 26 1
87 0 5 276 1 159 1 259 1 116 1 211 1
88 0 5 136 1 115 1 430 1 130 1 151 1
89 0 5 53 1 223 1 129 1 203 1 71 1
90 0 5 232 1 577 1 447 1 274 1 108 1
91 0 5 245 1 31 1 25 1 152 1 127 1
92 0 5 166 1 171 1 357 1 258 1 588 1
93 0 5 16 1 612 1 295 1 503 1 533 1
94 0 5 113 1 59 1 122 1 310 1 116 1
95 0 5 175 1 313 1 309 1 38 1 80 1
96 0 5 74 1 422 1 600 1 23 1 59 1
97 0 5 289 1 265 1 125 1 205 1 297 1
98 0 5 247 1 550 1 347 1 351 1 78 1
99 0 5 260 1 17 1 271 1 65 1 194 1
100 0 5 155 1 61 1 303 1 43 1 13 1
101 0 5 66 1 273 1 363 1 26 1 406 1
102 0 5 318 1 244 1 309 1 114 1 291 1
103 0 5 369 1 243 1 14 1 563 1 170 1
104 0 5 383 1 620 1 637 1 330 1 610 1
105 0 5 228 1 278 1 398 1 567 1 266 1
106 0 5 84 1 144 1 497 1 506 1 359 1
107 0 5 225 1 193 1 75 1 647 1 646 1
108 0 5 232 1 398 1 272 1 288 1 577 1
109 0 5 10 1 363 1 178 1 39 1 273 1
110 0 5 655 1 659 1 1 1 674 1 648 1
111 0 5 549 1 632 1 137 1 240 1 295 1
112 0 5 352 1 207 1 183 1 46 1 54 1
113 0 5 94 1 59 1 122 1 222 1 310 1
114 0 5 291 1 244 1 102 1 80 1 318 1
115 0 5 88 1 559 1 163 1 136 1 430 1
116 0 5 122 1 616 1 259 1 87 1 222 1
117 0 5 608 1 154 1 161 1 12 1 179 1
118 0 5 303 1 270 1 241 1 248 1 313 1
119 0 5 599 1 630 1 9 1 11 1 170 1
120 0 5 307 1 141 1 489 1 495 1 583 1
121 0 5 449 1 30 1 618 1 516 1 395 1
122 0 5 222 1 113 1 116 1 94 1 54 1
123 0 5 301 1 15 1 51 1 168 1 597 1
124 0 5 432 1 402 1 452 1 358 1 501 1
125 0 5 265 1 205 1 97 1 235 1 199 1
126 0 5 282 1 615 1 407 1 601 1 302 1
127 0 5 267 1 221 1 208 1 425 1 91 1
128 0 5 562 1 13 1 209 1 140 1 421 1
129 0 5 89 1 203 1 35 1 53 1 235 1
130 0 5 597 1 301 1 136 1 611 1 123 1
131 0 5 522 1 607 1 641 1 353 1 527 1
132 0 5 12 1 161 1 185 1 117 1 315 1
133 0 5 305 1 10 1 39 1 48 1 47 1
134 0 5 208 1 221 1 341 1 181 1 320 1
135 0 5 591 1 623 1 333 1 602 1 483 1
136 0 5 88 1 130 1 230 1 430 1 290 1
137 0 5 295 1 549 1 111 1 632 1 240 1
138 0 5 287 1 79 1 460 1 187 1 316 1
139 0 5 631 1 410 1 405 1 8 1 331 1
140 0 5 455 1 209 1 275 1 128 1 217 1
141 0 5 307 1 120 1 583 1 495 1 452 1
142 0 5 507 1 423 1 210 1 590 1 402 1
143 0 5 65 1 19 1 17 1 492 1 99 1
144 0 5 106 1 84 1 497 1 506 1 174 1
145 0 5 415 1 419 1 355 1 606 1 635 1
146 0 5 382 1 629 1 391 1 196 1 565 1
147 0 5 49 1 216 1 52 1 197 1 521 1
148 0 5 509 1 520 1 612 1 470 1 77 1
149 0 5 204 1 185 1 315 1 2 1 15 1
150 0 5 69 1 28 1 513 1 53 1 342 1
151 0 5 430 1 190 1 51 1 597 1 88 1
152 0 5 245 1 31 1 73 1 552 1 25 1
153 0 5 331 1 434 1 350 1 293 1 23 1
154 0 5 608 1 117 1 179 1 36 1 215 1
155 0 5 100 1 56 1 43 1 271 1 61 1
156 0 5 219 1 34 1 396 1 517 1 625 1
157 0 5 496 1 448 1 604 1 602 1 285 1
158 0 5 468 1 482 1 535 1 325 1 545 1
159 0 5 32 1 259 1 214 1 87 1 211 1
160 0 5 280 1 520 1 21 1 528 1 509 1
161 0 5 12 1 117 1 132 1 608 1 179 1
162 0 5 253 1 4 1 571 1 199 1 125 1
163 0 5 314 1 115 1 346 1 574 1 340 1
164 0 5 373 1 539 1 5 1 300 1 418 1
165 0 5 534 1 361 1 515 1 379 1 542 1
166 0 5 92 1 277 1 343 1 357 1 258 1
167 0 5 634 1 218 1 639 1 224 1 526 1
168 0 5 204 1 2 1 359 1 442 1 84 1
169 0 5 454 1 499 1 403 1 613 1 609 1
170 0 5 521 1 216 1 82 1 308 1 119 1
171 0 5 92 1 588 1 7 1 336 1 357 1
172 0 5 617 1 489 1 618 1 358 1 449 1
173 0 5 344 1 306 1 192 1 311 1 42 1
174 0 5 547 1 611 1 257 1 144 1 106 1
175 0 5 95 1 309 1 80 1 313 1 38 1
176 0 5 178 1 392 1 312 1 387 1 304 1
177 0 5 570 1 459 1 376 1 502 1 428 1
178 0 5 478 1 44 1 176 1 281 1 312 1
179 0 5 154 1 608 1 461 1 117 1 215 1
180 0 5 337 1 628 1 348 1 435 1 397 1
181 0 5 201 1 341 1 134 1 503 1 208 1
182 0 5 435 1 468 1 325 1 180 1 158 1
183 0 5 207 1 46 1 112 1 352 1 600 1
184 0 5 315 1 225 1 75 1 185 1 287 1
185 0 5 149 1 204 1 315 1 132 1 184 1
186 0 5 487 1 540 1 440 1 231 1 471 1
187 0 5 585 1 236 1 287 1 138 1 284 1
188 0 5 428 1 504 1 227 1 376 1 459 1
189 0 5 42 1 43 1 241 1 317 1 311 1
190 0 5 151 1 60 1 574 1 88 1 430 1
191 0 5 328 1 334 1 242 1 438 1 627 1
192 0 5 311 1 173 1 42 1 306 1 344 1
193 0 5 107 1 316 1 585 1 187 1 236 1
194 0 5 61 1 13 1 260 1 562 1 99 1
195 0 5 424 1 57 1 296 1 300 1 524 1
196 0 5 28 1 382 1 150 1 567 1 146 1
197 0 5 52 1 541 1 277 1 49 1 568 1
198 0 5 70 1 384 1 524 1 417 1 55 1
199 0 5 4 1 235 1 205 1 125 1 265 1
200 0 5 252 1 452 1 431 1 402 1 72 1
201 0 5 181 1 19 1 503 1 134 1 81 1
202 0 5 476 1 206 1 340 1 264 1 256 1
203 0 5 35 1 50 1 129 1 297 1 89 1
204 0 5 149 1 442 1 185 1 168 1 2 1
205 0 5 235 1 125 1 199 1 265 1 97 1
206 0 5 476 1 202 1 85 1 256 1 639 1
207 0 5 352 1 112 1 46 1 183 1 54 1
208 0 5 221 1 134 1 267 1 181 1 127 1
209 0 5 275 1 140 1 128 1 421 1 455 1
210 0 5 402 1 423 1 142 1 452 1 507 1
211 0 5 288 1 385 1 319 1 283 1 229 1
212 0 5 557 1 494 1 378 1 441 1 510 1
213 0 5 305 1 39 1 10 1 251 1 299 1
214 0 5 283 1 211 1 159 1 288 1 62 1
215 0 5 36 1 255 1 250 1 179 1 154 1
216 0 5 147 1 49 1 170 1 52 1 521 1
217 0 5 37 1 275 1 421 1 455 1 209 1
218 0 5 224 1 634 1 167 1 356 1 639 1
219 0 5 156 1 396 1 410 1 405 1 254 1
220 0 5 365 1 68 1 67 1 563 1 339 1
221 0 5 208 1 134 1 267 1 127 1 320 1
222 0 5 54 1 122 1 46 1 352 1 113 1
223 0 5 89 1 53 1 71 1 239 1 129 1
224 0 5 218 1 634 1 517 1 167 1 529 1
225 0 5 107 1 315 1 184 1 316 1 585 1
226 0 5 527 1 369 1 641 1 41 1 269 1
227 0 5 548 1 64 1 619 1 428 1 519 1
228 0 5 105 1 398 1 567 1 272 1 62 1
229 0 5 319 1 385 1 288 1 211 1 27 1
230 0 5 290 1 611 1 136 1 130 1 529 1
231 0 5 440 1 471 1 268 1 487 1 304 1
232 0 5 90 1 577 1 108 1 515 1 272 1
233 0 5 506 1 544 1 497 1 179 1 161 1
234 0 5 248 1 80 1 189 1 38 1 118 1
235 0 5 205 1 199 1 97 1 35 1 125 1
236 0 5 585 1 284 1 187 1 485 1 251 1
237 0 5 258 1 605 1 621 1 166 1 24 1
238 0 5 474 1 569 1 500 1 399 1 329 1
239 0 5 63 1 71 1 223 1 25 1 342 1
240 0 5 633 1 632 1 549 1 364 1 111 1
241 0 5 270 1 303 1 118 1 189 1 43 1
242 0 5 191 1 334 1 498 1 438 1 627 1
243 0 5 41 1 103 1 369 1 636 1 226 1
244 0 5 291 1 114 1 102 1 297 1 318 1
245 0 5 31 1 91 1 152 1 25 1 425 1
246 0 5 293 1 600 1 255 1 250 1 36 1
247 0 5 98 1 351 1 78 1 347 1 621 1
248 0 5 38 1 234 1 313 1 118 1 175 1
249 0 5 330 1 368 1 436 1 620 1 488 1
250 0 5 255 1 293 1 215 1 350 1 36 1
251 0 5 299 1 213 1 236 1 187 1 485 1
252 0 5 200 1 72 1 539 1 417 1 296 1
253 0 5 162 1 4 1 571 1 199 1 125 1
254 0 5 396 1 422 1 517 1 381 1 310 1
255 0 5 250 1 215 1 293 1 36 1 246 1
256 0 5 340 1 447 1 206 1 202 1 476 1
257 0 5 443 1 411 1 547 1 174 1 450 1
258 0 5 237 1 605 1 166 1 70 1 55 1
259 0 5 32 1 159 1 116 1 87 1 276 1
260 0 5 17 1 99 1 194 1 562 1 13 1
261 0 5 266 1 62 1 6 1 58 1 262 1
262 0 5 58 1 278 1 571 1 6 1 261 1
263 0 5 320 1 41 1 341 1 134 1 243 1
264 0 5 456 1 559 1 202 1 340 1 526 1
265 0 5 125 1 97 1 205 1 289 1 235 1
266 0 5 261 1 62 1 6 1 58 1 105 1
267 0 5 127 1 221 1 81 1 208 1 134 1
268 0 5 304 1 231 1 24 1 605 1 176 1
269 0 5 45 1 425 1 530 1 41 1 226 1
270 0 5 241 1 118 1 303 1 189 1 234 1
271 0 5 469 1 20 1 56 1 99 1 155 1
272 0 5 398 1 567 1 228 1 108 1 105 1
273 0 5 363 1 86 1 477 1 101 1 66 1
274 0 5 542 1 165 1 534 1 447 1 90 1
275 0 5 209 1 140 1 217 1 455 1 421 1
276 0 5 87 1 27 1 116 1 385 1 616 1
277 0 5 343 1 166 1 197 1 541 1 52 1
278 0 5 262 1 571 1 105 1 58 1 6 1
279 0 5 395 1 555 1 516 1 308 1 121 1
280 0 5 160 1 528 1 520 1 21 1 148 1
281 0 5 178 1 10 1 674 1 643 1 644 1
282 0 5 615 1 302 1 126 1 601 1 458 1
283 0 5 214 1 211 1 288 1 62 1 385 1
284 0 5 485 1 482 1 236 1 158 1 354 1
285 0 5 394 1 448 1 560 1 437 1 602 1
286 0 5 364 1 82 1 636 1 633 1 240 1
287 0 5 138 1 79 1 187 1 460 1 316 1
288 0 5 229 1 211 1 108 1 319 1 62 1
289 0 5 297 1 97 1 265 1 318 1 35 1
290 0 5 230 1 356 1 611 1 529 1 136 1
291 0 5 244 1 114 1 102 1 297 1 80 1
292 0 5 47 1 29 1 305 1 10 1 652 1
293 0 5 250 1 350 1 246 1 255 1 153 1
294 0 5 589 1 366 1 481 1 523 1 453 1
295 0 5 137 1 612 1 93 1 111 1 549 1
296 0 5 72 1 524 1 195 1 417 1 252 1
297 0 5 289 1 50 1 35 1 97 1 203 1
298 0 5 406 1 586 1 11 1 9 1 599 1
299 0 5 251 1 485 1 213 1 236 1 187 1
300 0 5 57 1 424 1 373 1 195 1 164 1
301 0 5 123 1 597 1 130 1 51 1 15 1
302 0 5 615 1 282 1 458 1 601 1 126 1
303 0 5 118 1 270 1 241 1 100 1 189 1
304 0 5 268 1 24 1 231 1 176 1 491 1
305 0 5 47 1 48 1 213 1 133 1 10 1
306 0 5 538 1 173 1 81 1 344 1 192 1
307 0 5 141 1 120 1 495 1 583 1 489 1
308 0 5 521 1 395 1 30 1 170 1 279 1
309 0 5 318 1 102 1 95 1 175 1 80 1
310 0 5 381 1 616 1 94 1 422 1 254 1
311 0 5 192 1 42 1 173 1 189 1 317 1
312 0 5 178 1 392 1 176 1 362 1 387 1
313 0 5 38 1 95 1 248 1 118 1 175 1
314 0 5 163 1 374 1 346 1 340 1 115 1
315 0 5 75 1 185 1 149 1 184 1 225 1
316 0 5 475 1 193 1 79 1 287 1 184 1
317 0 5 42 1 43 1 344 1 173 1 56 1
318 0 5 309 1 102 1 289 1 244 1 114 1
319 0 5 385 1 229 1 211 1 288 1 27 1
320 0 5 263 1 41 1 341 1 134 1 221 1
321 0 5 584 1 371 1 400 1 370 1 582 1
322 0 5 414 1 578 1 512 1 481 1 437 1
323 0 5 525 1 514 1 595 1 338 1 584 1
324 0 5 439 1 405 1 625 1 411 1 450 1
325 0 5 535 1 446 1 468 1 182 1 158 1
326 0 5 362 1 467 1 598 1 550 1 387 1
327 0 5 548 1 638 1 504 1 603 1 573 1
328 0 5 191 1 438 1 242 1 334 1 627 1
329 0 5 537 1 569 1 500 1 474 1 429 1
330 0 5 249 1 620 1 488 1 436 1 368 1
331 0 5 434 1 153 1 23 1 139 1 631 1
332 0 5 83 1 518 1 337 1 397 1 628 1
333 0 5 483 1 591 1 135 1 496 1 604 1
334 0 5 627 1 191 1 242 1 377 1 457 1
335 0 5 408 1 561 1 607 1 386 1 367 1
336 0 5 393 1 588 1 554 1 171 1 7 1
337 0 5 628 1 180 1 397 1 83 1 332 1
338 0 5 441 1 584 1 582 1 494 1 557 1
339 0 5 68 1 451 1 581 1 416 1 365 1
340 0 5 256 1 202 1 264 1 314 1 476 1
341 0 5 181 1 134 1 320 1 263 1 41 1
342 0 5 513 1 69 1 71 1 63 1 150 1
343 0 5 277 1 166 1 541 1 24 1 540 1
344 0 5 173 1 317 1 56 1 42 1 306 1
345 0 5 580 1 523 1 505 1 21 1 438 1
346 0 5 374 1 609 1 314 1 574 1 163 1
347 0 5 467 1 491 1 98 1 550 1 247 1
348 0 5 180 1 22 1 575 1 626 1 337 1
349 0 5 623 1 602 1 135 1 414 1 322 1
350 0 5 293 1 461 1 250 1 153 1 434 1
351 0 5 247 1 621 1 98 1 524 1 388 1
352 0 5 112 1 207 1 46 1 54 1 183 1
353 0 5 522 1 607 1 68 1 367 1 131 1
354 0 5 564 1 485 1 482 1 284 1 585 1
355 0 5 145 1 412 1 358 1 606 1 610 1
356 0 5 529 1 290 1 218 1 230 1 224 1
357 0 5 92 1 166 1 588 1 171 1 308 1
358 0 5 432 1 355 1 412 1 489 1 172 1
359 0 5 442 1 506 1 168 1 84 1 497 1
360 0 5 378 1 383 1 510 1 104 1 525 1
361 0 5 379 1 399 1 515 1 165 1 534 1
362 0 5 326 1 598 1 467 1 387 1 550 1
363 0 5 273 1 109 1 86 1 101 1 47 1
364 0 5 286 1 633 1 240 1 636 1 82 1
365 0 5 220 1 67 1 68 1 416 1 463 1
366 0 5 589 1 453 1 498 1 294 1 614 1
367 0 5 607 1 408 1 454 1 335 1 353 1
368 0 5 620 1 249 1 330 1 635 1 104 1
369 0 5 226 1 103 1 527 1 243 1 41 1
370 0 5 582 1 584 1 371 1 441 1 321 1
371 0 5 370 1 321 1 584 1 582 1 404 1
372 0 5 437 1 511 1 596 1 624 1 578 1
373 0 5 164 1 300 1 539 1 424 1 195 1
374 0 5 346 1 609 1 314 1 499 1 163 1
375 0 5 493 1 553 1 579 1 470 1 77 1
376 0 5 570 1 177 1 459 1 188 1 428 1
377 0 5 457 1 627 1 465 1 436 1 558 1
378 0 5 360 1 510 1 557 1 494 1 212 1
379 0 5 361 1 399 1 515 1 165 1 534 1
380 0 5 556 1 389 1 590 1 444 1 445 1
381 0 5 310 1 616 1 254 1 517 1 422 1
382 0 5 629 1 146 1 391 1 196 1 592 1
383 0 5 104 1 620 1 360 1 637 1 610 1
384 0 5 554 1 198 1 70 1 417 1 473 1
385 0 5 319 1 229 1 211 1 27 1 288 1
386 0 5 408 1 542 1 566 1 335 1 534 1
387 0 5 392 1 598 1 362 1 326 1 491 1
388 0 5 55 1 621 1 351 1 524 1 198 1
389 0 5 556 1 444 1 380 1 590 1 507 1
390 0 5 427 1 458 1 486 1 302 1 560 1
391 0 5 629 1 146 1 382 1 592 1 565 1
392 0 5 387 1 312 1 176 1 426 1 598 1
393 0 5 618 1 336 1 588 1 120 1 307 1
394 0 5 437 1 285 1 372 1 413 1 596 1
395 0 5 279 1 308 1 521 1 516 1 30 1
396 0 5 254 1 219 1 422 1 517 1 156 1
397 0 5 628 1 337 1 435 1 460 1 332 1
398 0 5 272 1 228 1 108 1 567 1 105 1
399 0 5 515 1 379 1 361 1 238 1 165 1
400 0 5 486 1 321 1 404 1 514 1 323 1
401 0 5 619 1 64 1 519 1 572 1 227 1
402 0 5 210 1 452 1 124 1 142 1 583 1
403 0 5 169 1 499 1 574 1 346 1 190 1
404 0 5 551 1 486 1 400 1 371 1 479 1
405 0 5 410 1 324 1 139 1 439 1 219 1
406 0 5 66 1 298 1 593 1 586 1 101 1
407 0 5 458 1 126 1 409 1 594 1 615 1
408 0 5 335 1 367 1 386 1 609 1 607 1
409 0 5 594 1 479 1 407 1 551 1 404 1
410 0 5 405 1 23 1 139 1 219 1 324 1
411 0 5 450 1 443 1 257 1 439 1 547 1
412 0 5 432 1 501 1 610 1 355 1 358 1
413 0 5 465 1 558 1 433 1 536 1 437 1
414 0 5 322 1 466 1 481 1 543 1 512 1
415 0 5 419 1 145 1 617 1 355 1 449 1
416 0 5 576 1 581 1 446 1 451 1 472 1
417 0 5 72 1 384 1 198 1 296 1 252 1
418 0 5 5 1 444 1 431 1 164 1 401 1
419 0 5 415 1 145 1 355 1 617 1 635 1
420 0 5 33 1 553 1 455 1 591 1 493 1
421 0 5 217 1 209 1 275 1 17 1 128 1
422 0 5 254 1 96 1 396 1 310 1 74 1
423 0 5 210 1 142 1 507 1 531 1 590 1
424 0 5 195 1 57 1 300 1 296 1 524 1
425 0 5 269 1 245 1 152 1 127 1 91 1
426 0 5 178 1 281 1 392 1 387 1 471 1
427 0 5 390 1 560 1 302 1 458 1 486 1
428 0 5 188 1 459 1 177 1 227 1 376 1
429 0 5 484 1 537 1 592 1 329 1 500 1
430 0 5 151 1 597 1 88 1 51 1 136 1
431 0 5 5 1 539 1 200 1 252 1 507 1
432 0 5 358 1 412 1 124 1 501 1 355 1
433 0 5 595 1 514 1 536 1 413 1 640 1
434 0 5 331 1 461 1 153 1 350 1 631 1
435 0 5 182 1 628 1 397 1 468 1 180 1
436 0 5 488 1 457 1 249 1 465 1 330 1
437 0 5 372 1 394 1 596 1 624 1 558 1
438 0 5 328 1 191 1 242 1 505 1 523 1
439 0 5 324 1 625 1 450 1 411 1 405 1
440 0 5 487 1 231 1 186 1 24 1 540 1
441 0 5 338 1 582 1 557 1 494 1 584 1
442 0 5 204 1 359 1 2 1 506 1 168 1
443 0 5 450 1 257 1 411 1 625 1 611 1
444 0 5 389 1 556 1 380 1 418 1 590 1
445 0 5 480 1 18 1 573 1 76 1 380 1
446 0 5 325 1 535 1 416 1 581 1 545 1
447 0 5 256 1 274 1 90 1 85 1 206 1
448 0 5 157 1 285 1 602 1 604 1 496 1
449 0 5 618 1 121 1 30 1 415 1 172 1
450 0 5 443 1 625 1 411 1 439 1 257 1
451 0 5 581 1 339 1 416 1 575 1 22 1
452 0 5 583 1 402 1 200 1 124 1 141 1
453 0 5 614 1 498 1 366 1 242 1 589 1
454 0 5 169 1 499 1 609 1 367 1 408 1
455 0 5 140 1 275 1 209 1 217 1 493 1
456 0 5 264 1 559 1 526 1 202 1 340 1
457 0 5 436 1 488 1 377 1 465 1 627 1
458 0 5 407 1 390 1 302 1 126 1 615 1
459 0 5 177 1 570 1 376 1 428 1 502 1
460 0 5 490 1 475 1 287 1 138 1 462 1
461 0 5 350 1 179 1 434 1 215 1 544 1
462 0 5 60 1 518 1 490 1 460 1 332 1
463 0 5 14 1 11 1 67 1 586 1 599 1
464 0 5 73 1 565 1 530 1 3 1 45 1
465 0 5 488 1 436 1 413 1 457 1 558 1
466 0 5 543 1 546 1 587 1 414 1 579 1
467 0 5 347 1 326 1 491 1 550 1 362 1
468 0 5 158 1 535 1 482 1 435 1 325 1
469 0 5 20 1 271 1 538 1 19 1 81 1
470 0 5 493 1 77 1 375 1 579 1 509 1
471 0 5 231 1 426 1 487 1 44 1 440 1
472 0 5 576 1 593 1 586 1 416 1 545 1
473 0 5 7 1 70 1 554 1 384 1 55 1
474 0 5 500 1 238 1 569 1 484 1 329 1
475 0 5 460 1 316 1 15 1 490 1 138 1
476 0 5 206 1 202 1 256 1 85 1 340 1
477 0 5 86 1 26 1 564 1 593 1 273 1
478 0 5 178 1 9 1 66 1 101 1 540 1
479 0 5 594 1 409 1 551 1 404 1 486 1
480 0 5 76 1 445 1 18 1 573 1 603 1
481 0 5 512 1 578 1 414 1 322 1 366 1
482 0 5 564 1 158 1 284 1 468 1 354 1
483 0 5 333 1 591 1 496 1 601 1 135 1
484 0 5 592 1 429 1 500 1 3 1 474 1
485 0 5 284 1 585 1 236 1 354 1 482 1
486 0 5 404 1 400 1 390 1 551 1 594 1
487 0 5 186 1 440 1 231 1 540 1 471 1
488 0 5 436 1 465 1 457 1 330 1 249 1
489 0 5 172 1 120 1 358 1 583 1 141 1
490 0 5 460 1 462 1 60 1 332 1 397 1
491 0 5 467 1 347 1 24 1 598 1 387 1
492 0 5 533 1 16 1 143 1 93 1 612 1
493 0 5 375 1 470 1 455 1 553 1 579 1
494 0 5 557 1 510 1 212 1 441 1 378 1
495 0 5 307 1 141 1 554 1 120 1 384 1
496 0 5 157 1 604 1 601 1 448 1 483 1
497 0 5 144 1 506 1 544 1 508 1 106 1
498 0 5 453 1 366 1 242 1 614 1 523 1
499 0 5 454 1 169 1 403 1 609 1 346 1
500 0 5 474 1 569 1 329 1 484 1 238 1
501 0 5 412 1 432 1 360 1 610 1 124 1
502 0 5 64 1 177 1 459 1 570 1 428 1
503 0 5 16 1 93 1 201 1 341 1 137 1
504 0 5 603 1 327 1 548 1 188 1 638 1
505 0 5 580 1 438 1 345 1 523 1 516 1
506 0 5 233 1 359 1 497 1 144 1 442 1
507 0 5 142 1 590 1 423 1 210 1 431 1
508 0 5 544 1 8 1 497 1 631 1 144 1
509 0 5 77 1 520 1 148 1 470 1 579 1
510 0 5 494 1 378 1 557 1 338 1 441 1
511 0 5 372 1 624 1 596 1 614 1 437 1
512 0 5 578 1 481 1 322 1 614 1 372 1
513 0 5 69 1 342 1 150 1 71 1 63 1
514 0 5 595 1 433 1 323 1 525 1 640 1
515 0 5 399 1 379 1 361 1 577 1 165 1
516 0 5 555 1 279 1 580 1 121 1 395 1
517 0 5 254 1 224 1 396 1 634 1 156 1
518 0 5 83 1 332 1 462 1 60 1 626 1
519 0 5 619 1 572 1 401 1 227 1 64 1
520 0 5 160 1 509 1 280 1 148 1 77 1
521 0 5 308 1 170 1 395 1 216 1 82 1
522 0 5 131 1 607 1 353 1 367 1 68 1
523 0 5 345 1 498 1 580 1 21 1 589 1
524 0 5 198 1 55 1 296 1 351 1 78 1
525 0 5 323 1 640 1 595 1 514 1 510 1
526 0 5 456 1 639 1 202 1 264 1 559 1
527 0 5 226 1 641 1 369 1 131 1 622 1
528 0 5 280 1 21 1 160 1 555 1 520 1
529 0 5 34 1 356 1 290 1 611 1 224 1
530 0 5 45 1 464 1 73 1 269 1 3 1
531 0 5 582 1 441 1 212 1 370 1 557 1
532 0 5 622 1 561 1 537 1 566 1 429 1
533 0 5 492 1 16 1 93 1 612 1 143 1
534 0 5 542 1 165 1 361 1 274 1 379 1
535 0 5 325 1 545 1 158 1 468 1 446 1
536 0 5 640 1 595 1 465 1 433 1 488 1
537 0 5 329 1 429 1 569 1 500 1 532 1
538 0 5 306 1 20 1 81 1 469 1 344 1
539 0 5 431 1 252 1 164 1 373 1 5 1
540 0 5 541 1 186 1 440 1 487 1 478 1
541 0 5 540 1 197 1 568 1 343 1 277 1
542 0 5 534 1 274 1 165 1 386 1 361 1
543 0 5 466 1 546 1 587 1 579 1 414 1
544 0 5 508 1 497 1 233 1 8 1 506 1
545 0 5 535 1 593 1 482 1 158 1 576 1
546 0 5 587 1 466 1 543 1 414 1 579 1
547 0 5 174 1 257 1 611 1 411 1 144 1
548 0 5 327 1 638 1 504 1 227 1 603 1
549 0 5 111 1 632 1 137 1 240 1 633 1
550 0 5 40 1 78 1 98 1 467 1 347 1
551 0 5 404 1 479 1 594 1 486 1 371 1
552 0 5 25 1 63 1 152 1 342 1 31 1
553 0 5 375 1 579 1 420 1 493 1 543 1
554 0 5 384 1 7 1 473 1 336 1 70 1
555 0 5 516 1 279 1 580 1 395 1 528 1
556 0 5 389 1 444 1 380 1 590 1 507 1
557 0 5 494 1 212 1 441 1 510 1 378 1
558 0 5 596 1 624 1 413 1 465 1 377 1
559 0 5 456 1 264 1 115 1 526 1 88 1
560 0 5 427 1 448 1 285 1 302 1 157 1
561 0 5 566 1 532 1 335 1 386 1 622 1
562 0 5 13 1 128 1 194 1 260 1 421 1
563 0 5 14 1 220 1 463 1 67 1 103 1
564 0 5 482 1 477 1 354 1 86 1 158 1
565 0 5 3 1 592 1 464 1 73 1 391 1
566 0 5 561 1 386 1 532 1 335 1 534 1
567 0 5 272 1 228 1 398 1 196 1 105 1
568 0 5 9 1 630 1 541 1 197 1 49 1
569 0 5 329 1 474 1 500 1 238 1 537 1
570 0 5 177 1 376 1 459 1 502 1 428 1
571 0 5 262 1 58 1 278 1 6 1 253 1
572 0 5 519 1 619 1 227 1 401 1 638 1
573 0 5 18 1 638 1 76 1 445 1 480 1
574 0 5 190 1 403 1 346 1 163 1 151 1
575 0 5 22 1 613 1 451 1 626 1 348 1
576 0 5 472 1 416 1 593 1 545 1 446 1
577 0 5 232 1 515 1 90 1 108 1 399 1
578 0 5 512 1 322 1 372 1 614 1 437 1
579 0 5 77 1 375 1 553 1 543 1 466 1
580 0 5 345 1 505 1 523 1 516 1 555 1
581 0 5 451 1 416 1 339 1 446 1 576 1
582 0 5 370 1 441 1 584 1 338 1 531 1
583 0 5 141 1 452 1 307 1 120 1 489 1
584 0 5 321 1 582 1 370 1 338 1 441 1
585 0 5 187 1 485 1 236 1 193 1 354 1
586 0 5 11 1 472 1 406 1 463 1 298 1
587 0 5 546 1 466 1 543 1 414 1 481 1
588 0 5 171 1 336 1 357 1 393 1 92 1
589 0 5 294 1 366 1 498 1 453 1 523 1
590 0 5 507 1 380 1 389 1 142 1 556 1
591 0 5 135 1 33 1 333 1 483 1 420 1
592 0 5 3 1 484 1 565 1 429 1 391 1
593 0 5 26 1 545 1 472 1 477 1 406 1
594 0 5 479 1 409 1 551 1 404 1 486 1
595 0 5 514 1 433 1 640 1 536 1 525 1
596 0 5 624 1 558 1 437 1 372 1 511 1
597 0 5 51 1 130 1 301 1 430 1 123 1
598 0 5 387 1 326 1 362 1 491 1 392 1
599 0 5 11 1 119 1 463 1 14 1 298 1
600 0 5 59 1 96 1 246 1 74 1 183 1
601 0 5 282 1 126 1 496 1 615 1 483 1
602 0 5 604 1 623 1 349 1 448 1 157 1
603 0 5 504 1 76 1 327 1 548 1 638 1
604 0 5 496 1 157 1 602 1 448 1 135 1
605 0 5 237 1 24 1 258 1 268 1 491 1
606 0 5 637 1 610 1 635 1 355 1 145 1
607 0 5 367 1 522 1 353 1 131 1 335 1
608 0 5 117 1 154 1 161 1 179 1 36 1
609 0 5 374 1 346 1 499 1 454 1 408 1
610 0 5 637 1 606 1 412 1 383 1 104 1
611 0 5 174 1 230 1 547 1 130 1 290 1
612 0 5 93 1 295 1 148 1 533 1 492 1
613 0 5 575 1 22 1 169 1 339 1 367 1
614 0 5 453 1 511 1 578 1 512 1 366 1
615 0 5 302 1 282 1 126 1 601 1 458 1
616 0 5 381 1 310 1 116 1 94 1 517 1
617 0 5 172 1 415 1 358 1 355 1 145 1
618 0 5 393 1 449 1 172 1 336 1 588 1
619 0 5 519 1 572 1 401 1 227 1 64 1
620 0 5 368 1 330 1 104 1 249 1 383 1
621 0 5 388 1 351 1 55 1 247 1 347 1
622 0 5 532 1 641 1 429 1 537 1 561 1
623 0 5 349 1 602 1 135 1 591 1 604 1
624 0 5 596 1 558 1 511 1 372 1 437 1
625 0 5 450 1 439 1 324 1 443 1 411 1
626 0 5 518 1 83 1 22 1 575 1 348 1
627 0 5 334 1 377 1 457 1 191 1 242 1
628 0 5 397 1 337 1 180 1 435 1 332 1
629 0 5 382 1 391 1 146 1 592 1 196 1
630 0 5 9 1 568 1 119 1 49 1 197 1
631 0 5 8 1 139 1 508 1 544 1 434 1
632 0 5 549 1 111 1 240 1 633 1 137 1
633 0 5 240 1 632 1 364 1 549 1 111 1
634 0 5 167 1 218 1 224 1 639 1 517 1
635 0 5 606 1 368 1 637 1 145 1 610 1
636 0 5 286 1 82 1 364 1 240 1 633 1
637 0 5 610 1 606 1 104 1 383 1 620 1
638 0 5 327 1 548 1 573 1 18 1 603 1
639 0 5 167 1 85 1 526 1 634 1 206 1
640 0 5 536 1 525 1 595 1 514 1 433 1
641 0 5 527 1 226 1 622 1 131 1 522 1
642 0 5 643 1 673 1 659 1 658 1 657 1
643 0 5 643 1 673 1 659 1 658 1 657 1
644 0 5 643 1 673 1 659 1 658 1 657 1
645 0 5 643 1 673 1 659 1 658 1 657 1
646 0 5 643 1 673 1 659 1 658 1 657 1
647 0 5 643 1 673 1 659 1 658 1 657 1
648 0 5 643 1 673 1 659 1 658 1 657 1
649 0 5 643 1 673 1 659 1 658 1 657 1
650 0 5 643 1 673 1 659 1 658 1 657 1
651 0 5 643 1 673 1 659 1 658 1 657 1
652 0 5 643 1 673 1 659 1 658 1 657 1
653 0 5 643 1 673 1 659 1 658 1 657 1
654 0 5 643 1 673 1 659 1 658 1 657 1
655 0 5 643 1 673 1 659 1 658 1 657 1
656 0 5 643 1 673 1 659 1 658 1 657 1
657 0 5 643 1 673 1 659 1 658 1 657 1
658 0 5 643 1 673 1 659 1 658 1 657 1
659 0 5 643 1 673 1 659 1 658 1 657 1
660 0 5 643 1 673 1 659 1 658 1 657 1
661 0 5 643 1 673 1 659 1 658 1 657 1
662 0 5 643 1 673 1 659 1 658 1 657 1
663 0 5 643 1 673 1 659 1 658 1 657 1
664 0 5 643 1 673 1 659 1 658 1 657 1
665 0 5 643 1 673 1 659 1 658 1 657 1
666 0 5 643 1 673 1 659 1 658 1 657 1
667 0 5 643 1 673 1 659 1 658 1 657 1
668 0 5 643 1 673 1 659 1 658 1 657 1
669 0 5 643 1 673 1 659 1 658 1 657 1
670 0 5 643 1 673 1 659 1 658 1 657 1
671 0 5 643 1 673 1 659 1 658 1 657 1
672 0 5 643 1 673 1 659 1 658 1 657 1
673 0 5 643 1 673 1 659 1 658 1 657 1
674 0 5 643 1 673 1 659 1 658 1 657 1
675 0 5 643 1 673 1 659 1 658 1 657 1
-1
EOF
